%NProcShared=16
%mem=8GB
%Chk=ZERQOE-16p.chk
#n B3LYP/GEN Pseudo=Read SP

 ZERQOE unit cell w CO2 - capped w H

0 1
Ca         0.43077        1.32343       21.24437
Ca        -1.34535        4.12893       12.06332
S          1.78155        3.01233       13.30877
O          2.97910        2.43744       21.48378
O          8.03690        5.23602       11.85824
O          1.57953        1.58860       13.13575
O         -1.91594        1.14390       20.80019
O          0.99929        3.94541       12.49494
O         -1.40509        2.61205       13.79932
O          0.50592        5.33987       19.52475
O          2.67429        0.23207       21.54328
O          8.30243        3.02434       11.81750
O          0.57360        3.11649       19.86911
C          0.72398        4.14832       19.15705
C          3.40617        1.25328       21.33768
C          7.58950        4.06156       12.01357
C          6.52329       -0.55256       20.06662
C          4.46373        2.45560       13.44264
C          2.06672        2.51377       15.98360
C          1.08872        4.66800       15.40810
C          1.62427        3.43385       15.02157
C          5.18913       -0.30516       20.38019
C          5.80279        2.68729       13.13660
C          0.86751        4.90913       16.76294
C          1.15830        3.93820       17.72453
C          4.81052        1.02720       20.87627
C          6.18039        3.86780       12.47471
C          1.80990        2.76007       17.33155
C          7.48690        0.51951       20.27926
C          3.49730        3.39710       13.06002
C          7.11417        1.77234       20.77677
C          3.88225        4.63453       12.53306
C          5.77903        2.01220       21.09525
C          5.22167        4.85622       12.22199
Ca        12.31859        1.29235       21.27694
Ca        10.56659        4.06549       12.10642
S          9.20291        0.13319       20.03163
O          9.97764        1.07367       20.84518
O         12.90901        3.87776       12.54449
O         10.47688        2.54207       13.84518
O         10.45575        0.32500       13.46411
O         12.44077        3.08205       19.90481
C         10.28603        1.33982       14.19513
C          9.00918       -0.40264       17.40729
C          9.87310        1.80467       17.94692
C          9.37203        0.55240       18.31891
C         10.11071        2.06181       16.59740
C          9.85874        1.09274       15.62408
C          9.27889       -0.13996       16.06564
C          4.52014        4.41823       16.43035
O          3.76860        3.76535       15.84180
O          5.26363        5.08252       17.01205
O         -1.33301        5.28384       10.06734
O         -3.47939        3.91274       11.42514
O         -1.52068        5.90020       13.30026
O         -1.11278        2.17148       10.54583
O          0.67488       -0.50475       22.59101
O          0.35230        2.51931       22.92678
O          0.02582        0.29562       19.21850
O          8.59112       -1.02977       20.24039
O         12.01581       -0.40805       22.44235
O         14.84104        2.13697       21.28655
O         11.85517        2.49520       22.89498
O         12.61170       -0.02907       19.58485
H          1.66638        1.36147       12.19673
H         -2.14066        1.68331       20.02595
H         -1.41005        1.71065       13.44104
H          6.82065       -1.46812       19.69465
H          4.18539        1.59895       13.94633
H          2.57680        1.66378       15.69664
H          0.86179        5.38631       14.70273
H          4.47782       -1.04417       20.26647
H          6.51862        1.99080       13.39642
H          0.48281        5.81933       17.06053
H          4.72756        1.41649       19.88306
H          2.10069        2.07210       18.04371
H          7.07199        1.14326       19.51527
H          7.82156        2.51242       20.90682
H          3.18109        5.37539       12.37644
H          5.50300        2.92258       21.49531
H          5.50907        5.75436       11.80275
H         13.35901        4.68438       12.24825
H         13.16893        2.95828       19.27603
H          8.55455       -1.28106       17.70177
H         10.06368        2.52615       18.65978
H         10.47872        2.98313       16.31323
H          9.05209       -0.86135       15.36337
H         -1.94870        4.86349        9.44675
H         -3.81056        4.76791       11.10905
H         -0.95424        5.80600       14.08204
H         -1.86580        2.14467        9.93497
H          1.61209       -0.75086       22.63531
H         -0.43605        3.08302       22.88629
H          0.83969        0.28920       18.69080
H          8.18125       -1.33225       19.41491
H         12.73557       -0.49030       23.08740
H         15.37448        1.55575       21.85093
H         12.04545        3.42056       22.67496
H         12.72100        0.49815       18.77801
O         10.56476        5.66102       10.35755
O          9.83698        6.04963       13.38053
H         10.54148        6.71635       13.37208
H          9.66033        5.77713       10.02676
O         11.17191        2.12532       10.82700
H         11.49483        1.43224       11.42388

C H O S 0
6-31+G(d)
****
Ca 0
LANL2DZ
****

Ca 0
LANL2DZ

