%NProcShared=2
%mem = 8GB
%chk=example.chk
#n B3LYP/6-31G(d) Opt

 Example input script

0 1
C         -2.87209        2.01374       -0.03500
O         -4.06686        1.96995        0.00643
O         -1.67730        2.05721       -0.07666



	      
