%NProcShared=16
%mem=8GB
%Chk=ZERQOE-16p.chk
#n B3LYP/GEN Pseudo=Read SP

 ZERQOE empty unit cell - capped w H

0 1
Ca         6.96850        4.00759        1.16173
Ca         8.82599        1.38837       10.20447
S         10.09544        5.57251        2.16999
O          9.24386        4.74433        1.29847
O          8.51055        3.01573        8.24035
O          8.36096        3.17848       11.74866
O          8.81800        5.18157        8.79451
O          6.90553        2.12075        2.46413
C          8.90464        4.17419        8.00051
C         10.17438        6.03860        4.90845
C          9.34368        3.79337        4.21086
C          9.92239        5.04116        3.88050
C          9.02619        3.54150        5.53900
C          9.30613        4.46514        6.57188
C          9.92352        5.72206        6.25301
Ca        19.06987        4.62904        0.76454
Ca        20.33379        1.34148       10.06913
S         17.28556        2.40439        8.79389
O         16.03551        2.76587        0.44298
O         11.02089        0.38893       10.39949
O         17.50348        3.80020        9.11160
O         21.33048        4.52103        1.27738
O         18.09353        1.42074        9.55437
O         20.44449        2.77475        8.36744
O         18.65729        0.67733        2.33097
O         16.62345        4.95680        0.38647
O         10.86081        2.60623       10.11603
O         18.42108        2.99198        2.25923
C         18.34947        1.81007        2.76513
C         15.80558        3.97994        0.60066
C         11.55340        1.47361       10.05016
C         12.86066        5.91225        2.14985
C         14.61380        2.85253        8.45102
C         17.17756        3.24536        6.12899
C         17.97265        0.92841        6.44288
C         17.51031        2.17419        6.93948
C         14.19734        5.60431        1.68790
C         13.27974        2.63860        8.71543
C         18.12985        0.74265        5.08625
C         17.90178        1.83872        4.24392
C         14.41269        4.38251        1.11056
C         12.92662        1.57093        9.50711
C         17.42754        3.04170        4.77256
C         11.84715        5.10834        1.90279
C         15.61332        1.93968        8.91206
C         12.05792        3.87387        1.23487
C         15.16270        0.67753        9.40272
C         13.34859        3.52598        0.97203
C         13.83022        0.48857        9.66132
H          8.46394        2.85622       12.65775
H          6.16643        1.55870        2.18352
H         10.53450        6.97103        4.65174
H          9.16160        3.08638        3.48146
H          8.56956        2.64812        5.78065
H         10.17939        6.38385        7.00241
H         16.92733        4.35132        8.55913
H         21.48653        3.79315        1.89926
H         21.15214        3.41754        8.53162
H         12.69834        6.78013        2.68414
H         14.89710        3.68527        7.91129
H         16.77755        4.12221        6.49799
H         18.19132        0.16112        7.09746
H         14.96526        6.28602        1.79090
H         12.55898        3.26697        8.32725
H         18.40676       -0.17470        4.70308
H         17.25235        3.82376        4.12239
H         11.26925        3.26733        0.96077
H         15.83612       -0.08812        9.56180
H         13.53727        2.56369        0.65043
H         13.48642       -0.43543        9.96634
O         19.11431        6.61005       -0.23580
H         18.50501        6.60489       -0.99053
O         18.55918        3.41809       -0.78539
H         18.81695        3.83692       -1.62148
O         19.57968        5.88632        2.28249
H         19.26560        6.78149        2.08018
O         19.87975        0.12247       11.63146
H         19.32715       -0.61106       11.31926
O         20.14015       -0.16406        8.66539
H         19.66473        0.17517        7.89092
O         20.51099        2.72113       11.35777
H         20.18050        2.40795       12.21427
O         21.99987        0.65427       10.93651
H         22.50742        1.39831       11.29666
O          7.86546        2.93480       -0.20475
H          8.09156        3.49821       -0.96128
O          6.85856        5.83037       -0.08961
H          6.42968        6.54139        0.41179
O          6.08136        5.04403        2.53390
H          5.65086        4.44512        3.16389
O          5.60024        4.86704       -0.36509
H          5.64076        4.33214       -1.17327
O          8.17924       -0.47501        9.64568
H          7.99966       -0.48255        8.69248
O          8.99344        0.56107       12.13317
H          9.38739       -0.32326       12.07258
O          9.79114        0.64958        8.33110
H         10.72539        0.91042        8.32413
H         11.41498        3.34221        9.81249
O          9.82065        7.09940        2.41143
H          9.87272        7.57470        1.56746

C H O S 0
6-31+G(d)
****
Ca 0
LANL2DZ
****

Ca 0
LANL2DZ

